c WMC file for PBN EPFL/random_control/i2c_distill_EPFL/random_control/i2c_miter written by probABC
p cnf 1767 1764
161 14 15 0
-161 -14 0
-161 -15 0
164 18 22 0
-164 -18 0
-164 -22 0
181 9 22 0
-181 -9 0
-181 -22 0
202 7 13 0
-202 -7 0
-202 -13 0
211 12 13 0
-211 -12 0
-211 -13 0
214 11 23 0
-214 -11 0
-214 -23 0
216 6 7 0
-216 -6 0
-216 -7 0
221 18 -55 0
-221 -18 0
-221 55 0
224 15 -55 0
-224 -15 0
-224 55 0
225 9 12 0
-225 -9 0
-225 -12 0
226 -164 -225 0
-226 164 0
-226 225 0
227 6 -202 0
-227 -6 0
-227 202 0
249 -123 -128 0
-249 123 0
-249 128 0
251 44 48 0
-251 -44 0
-251 -48 0
253 16 21 0
-253 -16 0
-253 -21 0
254 25 50 0
-254 -25 0
-254 -50 0
255 -253 -254 0
-255 253 0
-255 254 0
257 42 47 0
-257 -42 0
-257 -47 0
258 39 51 0
-258 -39 0
-258 -51 0
260 43 45 0
-260 -43 0
-260 -45 0
261 41 -260 0
-261 -41 0
-261 260 0
268 25 46 0
-268 -25 0
-268 -46 0
269 48 49 0
-269 -48 0
-269 -49 0
271 50 -253 0
-271 -50 0
-271 253 0
273 39 41 0
-273 -39 0
-273 -41 0
274 -260 -273 0
-274 260 0
-274 273 0
275 47 51 0
-275 -47 0
-275 -51 0
276 42 -275 0
-276 -42 0
-276 275 0
277 -274 -276 0
-277 274 0
-277 276 0
278 44 -277 0
-278 -44 0
-278 277 0
281 83 -249 0
-281 -83 0
-281 249 0
286 10 15 0
-286 -10 0
-286 -15 0
287 -214 -286 0
-287 214 0
-287 286 0
289 9 18 0
-289 -9 0
-289 -18 0
310 -6 55 0
-310 6 0
-310 -55 0
311 8 -202 0
-311 -8 0
-311 202 0
312 26 30 0
-312 -26 0
-312 -30 0
313 -29 -312 0
-313 29 0
-313 312 0
314 -311 -313 0
-314 311 0
-314 313 0
315 14 -287 0
-315 -14 0
-315 287 0
316 -148 315 0
-316 148 0
-316 -315 0
317 148 -315 0
-317 -148 0
-317 315 0
318 316 317 0
-318 -316 0
-318 -317 0
319 -314 318 0
-319 314 0
-319 -318 0
320 60 -226 0
-320 -60 0
-320 226 0
321 17 -55 0
-321 -17 0
-321 55 0
322 5 20 0
-322 -5 0
-322 -20 0
323 19 -322 0
-323 -19 0
-323 322 0
324 6 -323 0
-324 -6 0
-324 323 0
325 -321 -324 0
-325 321 0
-325 324 0
326 -320 -325 0
-326 320 0
-326 325 0
327 -319 -326 0
-327 319 0
-327 326 0
328 310 327 0
-328 -310 0
-328 -327 0
329 130 328 0
-329 -130 0
-329 -328 0
330 4 -329 0
-330 -4 0
-330 329 0
331 -7 55 0
-331 7 0
-331 -55 0
332 6 8 0
-332 -6 0
-332 -8 0
333 -26 30 0
-333 26 0
-333 -30 0
334 29 -333 0
-334 -29 0
-334 333 0
335 13 -334 0
-335 -13 0
-335 334 0
336 -332 -335 0
-336 332 0
-336 335 0
337 318 -336 0
-337 -318 0
-337 336 0
338 7 -323 0
-338 -7 0
-338 323 0
339 -321 -338 0
-339 321 0
-339 338 0
340 -320 -339 0
-340 320 0
-340 339 0
341 -337 -340 0
-341 337 0
-341 340 0
342 331 341 0
-342 -331 0
-342 -341 0
343 130 342 0
-343 -130 0
-343 -342 0
344 4 -343 0
-344 -4 0
-344 343 0
345 -8 55 0
-345 8 0
-345 -55 0
346 19 22 0
-346 -19 0
-346 -22 0
347 -9 18 0
-347 9 0
-347 -18 0
348 -346 -347 0
-348 346 0
-348 347 0
349 8 -322 0
-349 -8 0
-349 322 0
350 -321 -349 0
-350 321 0
-350 349 0
351 -348 -350 0
-351 348 0
-351 350 0
352 7 -211 0
-352 -7 0
-352 211 0
353 6 -352 0
-353 -6 0
-353 352 0
354 318 -353 0
-354 -318 0
-354 353 0
355 -351 -354 0
-355 351 0
-355 354 0
356 345 355 0
-356 -345 0
-356 -355 0
357 130 356 0
-357 -130 0
-357 -356 0
358 4 -357 0
-358 -4 0
-358 357 0
376 -289 -346 0
-376 289 0
-376 346 0
388 -332 -352 0
-388 332 0
-388 352 0
417 -14 55 0
-417 14 0
-417 -55 0
418 14 -323 0
-418 -14 0
-418 323 0
419 -321 -418 0
-419 321 0
-419 418 0
420 -320 -419 0
-420 320 0
-420 419 0
421 26 -30 0
-421 -26 0
-421 30 0
422 29 -421 0
-422 -29 0
-422 421 0
423 -227 -422 0
-423 227 0
-423 422 0
424 8 -287 0
-424 -8 0
-424 287 0
425 -423 -424 0
-425 423 0
-425 424 0
426 -420 -425 0
-426 420 0
-426 425 0
427 417 426 0
-427 -417 0
-427 -426 0
428 130 427 0
-428 -130 0
-428 -427 0
429 -149 428 0
-429 149 0
-429 -428 0
430 149 -428 0
-430 -149 0
-430 428 0
431 429 430 0
-431 -429 0
-431 -430 0
432 4 431 0
-432 -4 0
-432 -431 0
433 -15 55 0
-433 15 0
-433 -55 0
434 17 -224 0
-434 -17 0
-434 224 0
435 -150 434 0
-435 150 0
-435 -434 0
436 150 -434 0
-436 -150 0
-436 434 0
437 435 436 0
-437 -435 0
-437 -436 0
438 -322 437 0
-438 322 0
-438 -437 0
439 -376 -438 0
-439 376 0
-439 438 0
440 10 -14 0
-440 -10 0
-440 14 0
441 -214 -440 0
-441 214 0
-441 440 0
442 -388 -441 0
-442 388 0
-442 441 0
443 -439 -442 0
-443 439 0
-443 442 0
444 433 443 0
-444 -433 0
-444 -443 0
445 130 444 0
-445 -130 0
-445 -444 0
446 4 -445 0
-446 -4 0
-446 445 0
447 42 44 0
-447 -42 0
-447 -44 0
448 -269 -447 0
-448 269 0
-448 447 0
449 46 -254 0
-449 -46 0
-449 254 0
450 -448 -449 0
-450 448 0
-450 449 0
451 47 -258 0
-451 -47 0
-451 258 0
452 -261 -451 0
-452 261 0
-452 451 0
453 16 -452 0
-453 -16 0
-453 452 0
454 -450 -453 0
-454 450 0
-454 453 0
455 -83 454 0
-455 83 0
-455 -454 0
456 249 455 0
-456 -249 0
-456 -455 0
457 71 -456 0
-457 -71 0
-457 456 0
458 49 -251 0
-458 -49 0
-458 251 0
459 -449 -458 0
-459 449 0
-459 458 0
460 -277 -459 0
-460 277 0
-460 459 0
461 -151 460 0
-461 151 0
-461 -460 0
462 151 -460 0
-462 -151 0
-462 460 0
463 461 462 0
-463 -461 0
-463 -462 0
464 -16 -463 0
-464 16 0
-464 463 0
465 46 -269 0
-465 -46 0
-465 269 0
466 3 21 0
-466 -3 0
-466 -21 0
467 16 466 0
-467 -16 0
-467 -466 0
468 -278 -467 0
-468 278 0
-468 467 0
469 -254 -468 0
-469 254 0
-469 468 0
470 -465 -469 0
-470 465 0
-470 469 0
471 464 470 0
-471 -464 0
-471 -470 0
472 -83 471 0
-472 83 0
-472 -471 0
473 -16 -281 0
-473 16 0
-473 281 0
474 472 473 0
-474 -472 0
-474 -473 0
475 457 -474 0
-475 -457 0
-475 474 0
476 130 475 0
-476 -130 0
-476 -475 0
486 -18 55 0
-486 18 0
-486 -55 0
487 8 -216 0
-487 -8 0
-487 216 0
488 26 29 0
-488 -26 0
-488 -29 0
489 13 -488 0
-489 -13 0
-489 488 0
490 -487 -489 0
-490 487 0
-490 489 0
491 318 -490 0
-491 -318 0
-491 490 0
492 17 -221 0
-492 -17 0
-492 221 0
493 -323 -492 0
-493 323 0
-493 492 0
494 12 -181 0
-494 -12 0
-494 181 0
495 30 -60 0
-495 -30 0
-495 60 0
496 -494 -495 0
-496 494 0
-496 495 0
497 -493 -496 0
-497 493 0
-497 496 0
498 -491 -497 0
-498 491 0
-498 497 0
499 486 498 0
-499 -486 0
-499 -498 0
500 130 499 0
-500 -130 0
-500 -499 0
501 4 -500 0
-501 -4 0
-501 500 0
520 -251 -257 0
-520 251 0
-520 257 0
523 41 43 0
-523 -41 0
-523 -43 0
554 -23 55 0
-554 23 0
-554 -55 0
555 23 -322 0
-555 -23 0
-555 322 0
556 -152 555 0
-556 152 0
-556 -555 0
557 152 -555 0
-557 -152 0
-557 555 0
558 556 557 0
-558 -556 0
-558 -557 0
559 -321 558 0
-559 321 0
-559 -558 0
560 -376 -559 0
-560 376 0
-560 559 0
561 10 11 0
-561 -10 0
-561 -11 0
562 -161 -561 0
-562 161 0
-562 561 0
563 -6 8 0
-563 6 0
-563 -8 0
564 -352 -563 0
-564 352 0
-564 563 0
565 -562 -564 0
-565 562 0
-565 564 0
566 -560 -565 0
-566 560 0
-566 565 0
567 554 566 0
-567 -554 0
-567 -566 0
568 130 567 0
-568 -130 0
-568 -567 0
569 4 -568 0
-569 -4 0
-569 568 0
582 3 46 0
-582 -3 0
-582 -46 0
598 -86 -117 0
-598 86 0
-598 117 0
613 -27 -117 0
-613 27 0
-613 117 0
621 40 53 0
-621 -40 0
-621 -53 0
622 52 -621 0
-622 -52 0
-622 621 0
623 -117 -622 0
-623 117 0
-623 622 0
646 -86 117 0
-646 86 0
-646 -117 0
647 111 646 0
-647 -111 0
-647 -646 0
648 613 -647 0
-648 -613 0
-648 647 0
649 97 -648 0
-649 -97 0
-649 648 0
650 27 -598 0
-650 -27 0
-650 598 0
651 649 650 0
-651 -649 0
-651 -650 0
652 -101 651 0
-652 101 0
-652 -651 0
653 86 623 0
-653 -86 0
-653 -623 0
654 -27 -653 0
-654 27 0
-654 653 0
655 -153 654 0
-655 153 0
-655 -654 0
656 153 -654 0
-656 -153 0
-656 654 0
657 655 656 0
-657 -655 0
-657 -656 0
658 652 -657 0
-658 -652 0
-658 657 0
659 130 658 0
-659 -130 0
-659 -658 0
660 4 -659 0
-660 -4 0
-660 659 0
661 28 54 0
-661 -28 0
-661 -54 0
662 59 -661 0
-662 -59 0
-662 661 0
663 -660 -662 0
-663 660 0
-663 662 0
763 -100 -107 0
-763 100 0
-763 107 0
764 -32 -110 0
-764 32 0
-764 110 0
765 -33 110 0
-765 33 0
-765 -110 0
766 764 765 0
-766 -764 0
-766 -765 0
767 107 766 0
-767 -107 0
-767 -766 0
768 763 767 0
-768 -763 0
-768 -767 0
769 130 768 0
-769 -130 0
-769 -768 0
770 -154 769 0
-770 154 0
-770 -769 0
771 154 -769 0
-771 -154 0
-771 769 0
772 770 771 0
-772 -770 0
-772 -771 0
794 -99 -107 0
-794 99 0
-794 107 0
795 -36 -110 0
-795 36 0
-795 110 0
796 -155 795 0
-796 155 0
-796 -795 0
797 155 -795 0
-797 -155 0
-797 795 0
798 796 797 0
-798 -796 0
-798 -797 0
799 -37 110 0
-799 37 0
-799 -110 0
800 -798 799 0
-800 798 0
-800 -799 0
801 107 800 0
-801 -107 0
-801 -800 0
802 794 801 0
-802 -794 0
-802 -801 0
803 130 802 0
-803 -130 0
-803 -802 0
813 -255 -582 0
-813 255 0
-813 582 0
819 3 49 0
-819 -3 0
-819 -49 0
820 -268 -819 0
-820 268 0
-820 819 0
821 -271 -820 0
-821 271 0
-821 820 0
828 45 -83 0
-828 -45 0
-828 83 0
921 -258 -261 0
-921 258 0
-921 261 0
935 39 -523 0
-935 -39 0
-935 523 0
958 -83 278 0
-958 83 0
-958 -278 0
959 -83 821 0
-959 83 0
-959 -821 0
960 -249 959 0
-960 249 0
-960 -959 0
961 958 960 0
-961 -958 0
-961 -960 0
962 48 961 0
-962 -48 0
-962 -961 0
963 -278 -821 0
-963 278 0
-963 821 0
964 -83 963 0
-964 83 0
-964 -963 0
965 249 964 0
-965 -249 0
-965 -964 0
966 -65 -965 0
-966 65 0
-966 965 0
967 -447 -451 0
-967 447 0
-967 451 0
968 -48 -523 0
-968 48 0
-968 523 0
969 -828 -968 0
-969 828 0
-969 968 0
970 -156 969 0
-970 156 0
-970 -969 0
971 156 -969 0
-971 -156 0
-971 969 0
972 970 971 0
-972 -970 0
-972 -971 0
973 -967 972 0
-973 967 0
-973 -972 0
974 130 973 0
-974 -130 0
-974 -973 0
975 966 -974 0
-975 -966 0
-975 974 0
976 962 -975 0
-976 -962 0
-976 975 0
977 -520 -921 0
-977 520 0
-977 921 0
978 -157 977 0
-978 157 0
-978 -977 0
979 157 -977 0
-979 -157 0
-979 977 0
980 978 979 0
-980 -978 0
-980 -979 0
981 -83 -980 0
-981 83 0
-981 980 0
982 -83 813 0
-982 83 0
-982 -813 0
983 -249 982 0
-983 249 0
-983 -982 0
984 981 983 0
-984 -981 0
-984 -983 0
985 49 984 0
-985 -49 0
-985 -984 0
986 3 48 0
-986 -3 0
-986 -48 0
987 -268 -271 0
-987 268 0
-987 271 0
988 -986 -987 0
-988 986 0
-988 987 0
989 -278 -988 0
-989 278 0
-989 988 0
990 -83 989 0
-990 83 0
-990 -989 0
991 249 990 0
-991 -249 0
-991 -990 0
992 -63 -991 0
-992 63 0
-992 991 0
993 -251 -276 0
-993 251 0
-993 276 0
994 -49 -935 0
-994 49 0
-994 935 0
995 -828 -994 0
-995 828 0
-995 994 0
996 -993 -995 0
-996 993 0
-996 995 0
997 130 996 0
-997 -130 0
-997 -996 0
998 992 -997 0
-998 -992 0
-998 997 0
999 985 -998 0
-999 -985 0
-999 998 0
1143 138 139 0
-1143 -138 0
-1143 -139 0
1144 -137 -1143 0
-1144 137 0
-1144 1143 0
1145 -158 1144 0
-1145 158 0
-1145 -1144 0
1146 158 -1144 0
-1146 -158 0
-1146 1144 0
1147 1145 1146 0
-1147 -1145 0
-1147 -1146 0
1148 -133 -134 0
-1148 133 0
-1148 134 0
1149 -132 -1148 0
-1149 132 0
-1149 1148 0
1150 1147 -1149 0
-1150 -1147 0
-1150 1149 0
1151 -63 1150 0
-1151 63 0
-1151 -1150 0
1152 -137 138 0
-1152 137 0
-1152 -138 0
1153 141 -1152 0
-1153 -141 0
-1153 1152 0
1154 139 -1149 0
-1154 -139 0
-1154 1149 0
1155 -1153 -1154 0
-1155 1153 0
-1155 1154 0
1156 1151 1155 0
-1156 -1151 0
-1156 -1155 0
1157 130 1156 0
-1157 -130 0
-1157 -1156 0
1158 -64 1150 0
-1158 64 0
-1158 -1150 0
1159 143 -1152 0
-1159 -143 0
-1159 1152 0
1160 -1154 -1159 0
-1160 1154 0
-1160 1159 0
1161 1158 1160 0
-1161 -1158 0
-1161 -1160 0
1162 130 1161 0
-1162 -130 0
-1162 -1161 0
1163 -65 1150 0
-1163 65 0
-1163 -1150 0
1164 140 -1152 0
-1164 -140 0
-1164 1152 0
1165 -1154 -1164 0
-1165 1154 0
-1165 1164 0
1166 1163 1165 0
-1166 -1163 0
-1166 -1165 0
1167 130 1166 0
-1167 -130 0
-1167 -1166 0
1168 -66 1150 0
-1168 66 0
-1168 -1150 0
1169 147 -1152 0
-1169 -147 0
-1169 1152 0
1170 -1154 -1169 0
-1170 1154 0
-1170 1169 0
1171 1168 1170 0
-1171 -1168 0
-1171 -1170 0
1172 130 1171 0
-1172 -130 0
-1172 -1171 0
1183 -69 1150 0
-1183 69 0
-1183 -1150 0
1184 142 -1152 0
-1184 -142 0
-1184 1152 0
1185 -1154 -1184 0
-1185 1154 0
-1185 1184 0
1186 1183 1185 0
-1186 -1183 0
-1186 -1185 0
1187 130 1186 0
-1187 -130 0
-1187 -1186 0
1188 -70 1150 0
-1188 70 0
-1188 -1150 0
1189 144 -1152 0
-1189 -144 0
-1189 1152 0
1190 -1154 -1189 0
-1190 1154 0
-1190 1189 0
1191 1188 1190 0
-1191 -1188 0
-1191 -1190 0
1192 130 1191 0
-1192 -130 0
-1192 -1191 0
1193 -71 1150 0
-1193 71 0
-1193 -1150 0
1194 145 -1152 0
-1194 -145 0
-1194 1152 0
1195 -1154 -1194 0
-1195 1154 0
-1195 1194 0
1196 1193 1195 0
-1196 -1193 0
-1196 -1195 0
1197 130 1196 0
-1197 -130 0
-1197 -1196 0
1198 -72 1150 0
-1198 72 0
-1198 -1150 0
1199 146 -1152 0
-1199 -146 0
-1199 1152 0
1200 -1154 -1199 0
-1200 1154 0
-1200 1199 0
1201 1198 1200 0
-1201 -1198 0
-1201 -1200 0
1202 130 1201 0
-1202 -130 0
-1202 -1201 0
1288 -137 -138 0
-1288 137 0
-1288 138 0
1289 -159 1288 0
-1289 159 0
-1289 -1288 0
1290 159 -1288 0
-1290 -159 0
-1290 1288 0
1291 1289 1290 0
-1291 -1289 0
-1291 -1290 0
1292 -1154 1291 0
-1292 1154 0
-1292 -1291 0
1293 -89 1292 0
-1293 89 0
-1293 -1292 0
1294 -140 -1292 0
-1294 140 0
-1294 1292 0
1295 1293 1294 0
-1295 -1293 0
-1295 -1294 0
1296 130 1295 0
-1296 -130 0
-1296 -1295 0
1297 -90 1292 0
-1297 90 0
-1297 -1292 0
1298 -141 -1292 0
-1298 141 0
-1298 1292 0
1299 1297 1298 0
-1299 -1297 0
-1299 -1298 0
1300 130 1299 0
-1300 -130 0
-1300 -1299 0
1301 -91 1292 0
-1301 91 0
-1301 -1292 0
1302 -143 -1292 0
-1302 143 0
-1302 1292 0
1303 1301 1302 0
-1303 -1301 0
-1303 -1302 0
1304 130 1303 0
-1304 -130 0
-1304 -1303 0
1305 -92 1292 0
-1305 92 0
-1305 -1292 0
1306 -144 -1292 0
-1306 144 0
-1306 1292 0
1307 1305 1306 0
-1307 -1305 0
-1307 -1306 0
1308 130 1307 0
-1308 -130 0
-1308 -1307 0
1309 -93 1292 0
-1309 93 0
-1309 -1292 0
1310 -145 -1292 0
-1310 145 0
-1310 1292 0
1311 1309 1310 0
-1311 -1309 0
-1311 -1310 0
1312 130 1311 0
-1312 -130 0
-1312 -1311 0
1313 -94 1292 0
-1313 94 0
-1313 -1292 0
1314 -147 -1292 0
-1314 147 0
-1314 1292 0
1315 1313 1314 0
-1315 -1313 0
-1315 -1314 0
1316 130 1315 0
-1316 -130 0
-1316 -1315 0
1342 -99 1292 0
-1342 99 0
-1342 -1292 0
1343 -146 -1292 0
-1343 146 0
-1343 1292 0
1344 1342 1343 0
-1344 -1342 0
-1344 -1343 0
1345 130 1344 0
-1345 -130 0
-1345 -1344 0
1346 -100 1292 0
-1346 100 0
-1346 -1292 0
1347 -142 -1292 0
-1347 142 0
-1347 1292 0
1348 1346 1347 0
-1348 -1346 0
-1348 -1347 0
1349 130 1348 0
-1349 -130 0
-1349 -1348 0
1539 -314 -315 0
-1539 314 0
-1539 315 0
1540 -326 -1539 0
-1540 326 0
-1540 1539 0
1541 310 1540 0
-1541 -310 0
-1541 -1540 0
1542 130 1541 0
-1542 -130 0
-1542 -1541 0
1543 4 -1542 0
-1543 -4 0
-1543 1542 0
1544 -315 -336 0
-1544 315 0
-1544 336 0
1545 -340 -1544 0
-1545 340 0
-1545 1544 0
1546 331 1545 0
-1546 -331 0
-1546 -1545 0
1547 130 1546 0
-1547 -130 0
-1547 -1546 0
1548 4 -1547 0
-1548 -4 0
-1548 1547 0
1549 -315 -353 0
-1549 315 0
-1549 353 0
1550 -351 -1549 0
-1550 351 0
-1550 1549 0
1551 345 1550 0
-1551 -345 0
-1551 -1550 0
1552 130 1551 0
-1552 -130 0
-1552 -1551 0
1553 4 -1552 0
-1553 -4 0
-1553 1552 0
1554 4 -428 0
-1554 -4 0
-1554 428 0
1555 -322 -434 0
-1555 322 0
-1555 434 0
1556 -376 -1555 0
-1556 376 0
-1556 1555 0
1557 -442 -1556 0
-1557 442 0
-1557 1556 0
1558 433 1557 0
-1558 -433 0
-1558 -1557 0
1559 130 1558 0
-1559 -130 0
-1559 -1558 0
1560 4 -1559 0
-1560 -4 0
-1560 1559 0
1561 -16 460 0
-1561 16 0
-1561 -460 0
1562 470 1561 0
-1562 -470 0
-1562 -1561 0
1563 -83 1562 0
-1563 83 0
-1563 -1562 0
1564 473 1563 0
-1564 -473 0
-1564 -1563 0
1565 457 -1564 0
-1565 -457 0
-1565 1564 0
1566 130 1565 0
-1566 -130 0
-1566 -1565 0
1567 -315 -490 0
-1567 315 0
-1567 490 0
1568 -497 -1567 0
-1568 497 0
-1568 1567 0
1569 486 1568 0
-1569 -486 0
-1569 -1568 0
1570 130 1569 0
-1570 -130 0
-1570 -1569 0
1571 4 -1570 0
-1571 -4 0
-1571 1570 0
1572 -321 -555 0
-1572 321 0
-1572 555 0
1573 -376 -1572 0
-1573 376 0
-1573 1572 0
1574 -565 -1573 0
-1574 565 0
-1574 1573 0
1575 554 1574 0
-1575 -554 0
-1575 -1574 0
1576 130 1575 0
-1576 -130 0
-1576 -1575 0
1577 4 -1576 0
-1577 -4 0
-1577 1576 0
1578 652 654 0
-1578 -652 0
-1578 -654 0
1579 130 1578 0
-1579 -130 0
-1579 -1578 0
1580 4 -1579 0
-1580 -4 0
-1580 1579 0
1581 -662 -1580 0
-1581 662 0
-1581 1580 0
1582 795 799 0
-1582 -795 0
-1582 -799 0
1583 107 1582 0
-1583 -107 0
-1583 -1582 0
1584 794 1583 0
-1584 -794 0
-1584 -1583 0
1585 130 1584 0
-1585 -130 0
-1585 -1584 0
1586 -967 -969 0
-1586 967 0
-1586 969 0
1587 130 1586 0
-1587 -130 0
-1587 -1586 0
1588 966 -1587 0
-1588 -966 0
-1588 1587 0
1589 962 -1588 0
-1589 -962 0
-1589 1588 0
1590 -83 977 0
-1590 83 0
-1590 -977 0
1591 983 1590 0
-1591 -983 0
-1591 -1590 0
1592 49 1591 0
-1592 -49 0
-1592 -1591 0
1593 -998 1592 0
-1593 998 0
-1593 -1592 0
1594 -1144 -1149 0
-1594 1144 0
-1594 1149 0
1595 -63 1594 0
-1595 63 0
-1595 -1594 0
1596 1155 1595 0
-1596 -1155 0
-1596 -1595 0
1597 130 1596 0
-1597 -130 0
-1597 -1596 0
1598 -64 1594 0
-1598 64 0
-1598 -1594 0
1599 1160 1598 0
-1599 -1160 0
-1599 -1598 0
1600 130 1599 0
-1600 -130 0
-1600 -1599 0
1601 -65 1594 0
-1601 65 0
-1601 -1594 0
1602 1165 1601 0
-1602 -1165 0
-1602 -1601 0
1603 130 1602 0
-1603 -130 0
-1603 -1602 0
1604 -66 1594 0
-1604 66 0
-1604 -1594 0
1605 1170 1604 0
-1605 -1170 0
-1605 -1604 0
1606 130 1605 0
-1606 -130 0
-1606 -1605 0
1607 -69 1594 0
-1607 69 0
-1607 -1594 0
1608 1185 1607 0
-1608 -1185 0
-1608 -1607 0
1609 130 1608 0
-1609 -130 0
-1609 -1608 0
1610 -70 1594 0
-1610 70 0
-1610 -1594 0
1611 1190 1610 0
-1611 -1190 0
-1611 -1610 0
1612 130 1611 0
-1612 -130 0
-1612 -1611 0
1613 -71 1594 0
-1613 71 0
-1613 -1594 0
1614 1195 1613 0
-1614 -1195 0
-1614 -1613 0
1615 130 1614 0
-1615 -130 0
-1615 -1614 0
1616 -72 1594 0
-1616 72 0
-1616 -1594 0
1617 1200 1616 0
-1617 -1200 0
-1617 -1616 0
1618 130 1617 0
-1618 -130 0
-1618 -1617 0
1619 -1154 -1288 0
-1619 1154 0
-1619 1288 0
1620 -89 1619 0
-1620 89 0
-1620 -1619 0
1621 -140 -1619 0
-1621 140 0
-1621 1619 0
1622 1620 1621 0
-1622 -1620 0
-1622 -1621 0
1623 130 1622 0
-1623 -130 0
-1623 -1622 0
1624 -90 1619 0
-1624 90 0
-1624 -1619 0
1625 -141 -1619 0
-1625 141 0
-1625 1619 0
1626 1624 1625 0
-1626 -1624 0
-1626 -1625 0
1627 130 1626 0
-1627 -130 0
-1627 -1626 0
1628 -91 1619 0
-1628 91 0
-1628 -1619 0
1629 -143 -1619 0
-1629 143 0
-1629 1619 0
1630 1628 1629 0
-1630 -1628 0
-1630 -1629 0
1631 130 1630 0
-1631 -130 0
-1631 -1630 0
1632 -92 1619 0
-1632 92 0
-1632 -1619 0
1633 -144 -1619 0
-1633 144 0
-1633 1619 0
1634 1632 1633 0
-1634 -1632 0
-1634 -1633 0
1635 130 1634 0
-1635 -130 0
-1635 -1634 0
1636 -93 1619 0
-1636 93 0
-1636 -1619 0
1637 -145 -1619 0
-1637 145 0
-1637 1619 0
1638 1636 1637 0
-1638 -1636 0
-1638 -1637 0
1639 130 1638 0
-1639 -130 0
-1639 -1638 0
1640 -94 1619 0
-1640 94 0
-1640 -1619 0
1641 -147 -1619 0
-1641 147 0
-1641 1619 0
1642 1640 1641 0
-1642 -1640 0
-1642 -1641 0
1643 130 1642 0
-1643 -130 0
-1643 -1642 0
1644 -99 1619 0
-1644 99 0
-1644 -1619 0
1645 -146 -1619 0
-1645 146 0
-1645 1619 0
1646 1644 1645 0
-1646 -1644 0
-1646 -1645 0
1647 130 1646 0
-1647 -130 0
-1647 -1646 0
1648 -100 1619 0
-1648 100 0
-1648 -1619 0
1649 -142 -1619 0
-1649 142 0
-1649 1619 0
1650 1648 1649 0
-1650 -1648 0
-1650 -1649 0
1651 130 1650 0
-1651 -130 0
-1651 -1650 0
1652 330 -1543 0
-1652 -330 0
-1652 1543 0
1653 -330 1543 0
-1653 330 0
-1653 -1543 0
1654 1652 1653 0
-1654 -1652 0
-1654 -1653 0
1655 344 -1548 0
-1655 -344 0
-1655 1548 0
1656 -344 1548 0
-1656 344 0
-1656 -1548 0
1657 1655 1656 0
-1657 -1655 0
-1657 -1656 0
1658 358 -1553 0
-1658 -358 0
-1658 1553 0
1659 -358 1553 0
-1659 358 0
-1659 -1553 0
1660 1658 1659 0
-1660 -1658 0
-1660 -1659 0
1661 432 -1554 0
-1661 -432 0
-1661 1554 0
1662 -432 1554 0
-1662 432 0
-1662 -1554 0
1663 1661 1662 0
-1663 -1661 0
-1663 -1662 0
1664 446 -1560 0
-1664 -446 0
-1664 1560 0
1665 -446 1560 0
-1665 446 0
-1665 -1560 0
1666 1664 1665 0
-1666 -1664 0
-1666 -1665 0
1667 476 -1566 0
-1667 -476 0
-1667 1566 0
1668 -476 1566 0
-1668 476 0
-1668 -1566 0
1669 1667 1668 0
-1669 -1667 0
-1669 -1668 0
1670 501 -1571 0
-1670 -501 0
-1670 1571 0
1671 -501 1571 0
-1671 501 0
-1671 -1571 0
1672 1670 1671 0
-1672 -1670 0
-1672 -1671 0
1673 569 -1577 0
-1673 -569 0
-1673 1577 0
1674 -569 1577 0
-1674 569 0
-1674 -1577 0
1675 1673 1674 0
-1675 -1673 0
-1675 -1674 0
1676 663 -1581 0
-1676 -663 0
-1676 1581 0
1677 -663 1581 0
-1677 663 0
-1677 -1581 0
1678 1676 1677 0
-1678 -1676 0
-1678 -1677 0
1679 -769 -772 0
-1679 769 0
-1679 772 0
1680 769 772 0
-1680 -769 0
-1680 -772 0
1681 1679 1680 0
-1681 -1679 0
-1681 -1680 0
1682 803 -1585 0
-1682 -803 0
-1682 1585 0
1683 -803 1585 0
-1683 803 0
-1683 -1585 0
1684 1682 1683 0
-1684 -1682 0
-1684 -1683 0
1685 976 -1589 0
-1685 -976 0
-1685 1589 0
1686 -976 1589 0
-1686 976 0
-1686 -1589 0
1687 1685 1686 0
-1687 -1685 0
-1687 -1686 0
1688 999 -1593 0
-1688 -999 0
-1688 1593 0
1689 -999 1593 0
-1689 999 0
-1689 -1593 0
1690 1688 1689 0
-1690 -1688 0
-1690 -1689 0
1691 -1157 1597 0
-1691 1157 0
-1691 -1597 0
1692 1157 -1597 0
-1692 -1157 0
-1692 1597 0
1693 1691 1692 0
-1693 -1691 0
-1693 -1692 0
1694 -1162 1600 0
-1694 1162 0
-1694 -1600 0
1695 1162 -1600 0
-1695 -1162 0
-1695 1600 0
1696 1694 1695 0
-1696 -1694 0
-1696 -1695 0
1697 -1167 1603 0
-1697 1167 0
-1697 -1603 0
1698 1167 -1603 0
-1698 -1167 0
-1698 1603 0
1699 1697 1698 0
-1699 -1697 0
-1699 -1698 0
1700 -1172 1606 0
-1700 1172 0
-1700 -1606 0
1701 1172 -1606 0
-1701 -1172 0
-1701 1606 0
1702 1700 1701 0
-1702 -1700 0
-1702 -1701 0
1703 -1187 1609 0
-1703 1187 0
-1703 -1609 0
1704 1187 -1609 0
-1704 -1187 0
-1704 1609 0
1705 1703 1704 0
-1705 -1703 0
-1705 -1704 0
1706 -1192 1612 0
-1706 1192 0
-1706 -1612 0
1707 1192 -1612 0
-1707 -1192 0
-1707 1612 0
1708 1706 1707 0
-1708 -1706 0
-1708 -1707 0
1709 -1197 1615 0
-1709 1197 0
-1709 -1615 0
1710 1197 -1615 0
-1710 -1197 0
-1710 1615 0
1711 1709 1710 0
-1711 -1709 0
-1711 -1710 0
1712 -1202 1618 0
-1712 1202 0
-1712 -1618 0
1713 1202 -1618 0
-1713 -1202 0
-1713 1618 0
1714 1712 1713 0
-1714 -1712 0
-1714 -1713 0
1715 1296 -1623 0
-1715 -1296 0
-1715 1623 0
1716 -1296 1623 0
-1716 1296 0
-1716 -1623 0
1717 1715 1716 0
-1717 -1715 0
-1717 -1716 0
1718 1300 -1627 0
-1718 -1300 0
-1718 1627 0
1719 -1300 1627 0
-1719 1300 0
-1719 -1627 0
1720 1718 1719 0
-1720 -1718 0
-1720 -1719 0
1721 1304 -1631 0
-1721 -1304 0
-1721 1631 0
1722 -1304 1631 0
-1722 1304 0
-1722 -1631 0
1723 1721 1722 0
-1723 -1721 0
-1723 -1722 0
1724 1308 -1635 0
-1724 -1308 0
-1724 1635 0
1725 -1308 1635 0
-1725 1308 0
-1725 -1635 0
1726 1724 1725 0
-1726 -1724 0
-1726 -1725 0
1727 1312 -1639 0
-1727 -1312 0
-1727 1639 0
1728 -1312 1639 0
-1728 1312 0
-1728 -1639 0
1729 1727 1728 0
-1729 -1727 0
-1729 -1728 0
1730 1316 -1643 0
-1730 -1316 0
-1730 1643 0
1731 -1316 1643 0
-1731 1316 0
-1731 -1643 0
1732 1730 1731 0
-1732 -1730 0
-1732 -1731 0
1733 1345 -1647 0
-1733 -1345 0
-1733 1647 0
1734 -1345 1647 0
-1734 1345 0
-1734 -1647 0
1735 1733 1734 0
-1735 -1733 0
-1735 -1734 0
1736 1349 -1651 0
-1736 -1349 0
-1736 1651 0
1737 -1349 1651 0
-1737 1349 0
-1737 -1651 0
1738 1736 1737 0
-1738 -1736 0
-1738 -1737 0
1739 -1657 -1660 0
-1739 1657 0
-1739 1660 0
1740 -1654 -1739 0
-1740 1654 0
-1740 1739 0
1741 -1663 -1666 0
-1741 1663 0
-1741 1666 0
1742 -1669 -1672 0
-1742 1669 0
-1742 1672 0
1743 -1741 -1742 0
-1743 1741 0
-1743 1742 0
1744 -1740 -1743 0
-1744 1740 0
-1744 1743 0
1745 -1675 -1678 0
-1745 1675 0
-1745 1678 0
1746 -1681 -1684 0
-1746 1681 0
-1746 1684 0
1747 -1745 -1746 0
-1747 1745 0
-1747 1746 0
1748 -1687 -1690 0
-1748 1687 0
-1748 1690 0
1749 -1747 -1748 0
-1749 1747 0
-1749 1748 0
1750 -1744 -1749 0
-1750 1744 0
-1750 1749 0
1751 -1693 -1696 0
-1751 1693 0
-1751 1696 0
1752 -1699 -1702 0
-1752 1699 0
-1752 1702 0
1753 -1705 -1708 0
-1753 1705 0
-1753 1708 0
1754 -1711 -1714 0
-1754 1711 0
-1754 1714 0
1755 -1753 -1754 0
-1755 1753 0
-1755 1754 0
1756 -1752 -1755 0
-1756 1752 0
-1756 1755 0
1757 -1751 -1756 0
-1757 1751 0
-1757 1756 0
1758 -1720 -1723 0
-1758 1720 0
-1758 1723 0
1759 -1717 -1758 0
-1759 1717 0
-1759 1758 0
1760 -1757 -1759 0
-1760 1757 0
-1760 1759 0
1761 -1726 -1729 0
-1761 1726 0
-1761 1729 0
1762 -1732 -1761 0
-1762 1732 0
-1762 1761 0
1763 -1735 -1738 0
-1763 1735 0
-1763 1738 0
1764 -1762 -1763 0
-1764 1762 0
-1764 1763 0
1765 -1760 -1764 0
-1765 1760 0
-1765 1764 0
1766 -1750 -1765 0
-1766 1750 0
-1766 1765 0
160 1766 0
-160 -1766 0
160 0
w 1 0.500000
w 2 0.500000
w 3 0.500000
w 4 0.500000
w 5 0.500000
w 6 0.500000
w 7 0.500000
w 8 0.500000
w 9 0.500000
w 10 0.500000
w 11 0.500000
w 12 0.500000
w 13 0.500000
w 14 0.500000
w 15 0.500000
w 16 0.500000
w 17 0.500000
w 18 0.500000
w 19 0.500000
w 20 0.500000
w 21 0.500000
w 22 0.500000
w 23 0.500000
w 24 0.500000
w 25 0.500000
w 26 0.500000
w 27 0.500000
w 28 0.500000
w 29 0.500000
w 30 0.500000
w 31 0.500000
w 32 0.500000
w 33 0.500000
w 34 0.500000
w 35 0.500000
w 36 0.500000
w 37 0.500000
w 38 0.500000
w 39 0.500000
w 40 0.500000
w 41 0.500000
w 42 0.500000
w 43 0.500000
w 44 0.500000
w 45 0.500000
w 46 0.500000
w 47 0.500000
w 48 0.500000
w 49 0.500000
w 50 0.500000
w 51 0.500000
w 52 0.500000
w 53 0.500000
w 54 0.500000
w 55 0.500000
w 56 0.500000
w 57 0.500000
w 58 0.500000
w 59 0.500000
w 60 0.500000
w 61 0.500000
w 62 0.500000
w 63 0.500000
w 64 0.500000
w 65 0.500000
w 66 0.500000
w 67 0.500000
w 68 0.500000
w 69 0.500000
w 70 0.500000
w 71 0.500000
w 72 0.500000
w 73 0.500000
w 74 0.500000
w 75 0.500000
w 76 0.500000
w 77 0.500000
w 78 0.500000
w 79 0.500000
w 80 0.500000
w 81 0.500000
w 82 0.500000
w 83 0.500000
w 84 0.500000
w 85 0.500000
w 86 0.500000
w 87 0.500000
w 88 0.500000
w 89 0.500000
w 90 0.500000
w 91 0.500000
w 92 0.500000
w 93 0.500000
w 94 0.500000
w 95 0.500000
w 96 0.500000
w 97 0.500000
w 98 0.500000
w 99 0.500000
w 100 0.500000
w 101 0.500000
w 102 0.500000
w 103 0.500000
w 104 0.500000
w 105 0.500000
w 106 0.500000
w 107 0.500000
w 108 0.500000
w 109 0.500000
w 110 0.500000
w 111 0.500000
w 112 0.500000
w 113 0.500000
w 114 0.500000
w 115 0.500000
w 116 0.500000
w 117 0.500000
w 118 0.500000
w 119 0.500000
w 120 0.500000
w 121 0.500000
w 122 0.500000
w 123 0.500000
w 124 0.500000
w 125 0.500000
w 126 0.500000
w 127 0.500000
w 128 0.500000
w 129 0.500000
w 130 0.500000
w 131 0.500000
w 132 0.500000
w 133 0.500000
w 134 0.500000
w 135 0.500000
w 136 0.500000
w 137 0.500000
w 138 0.500000
w 139 0.500000
w 140 0.500000
w 141 0.500000
w 142 0.500000
w 143 0.500000
w 144 0.500000
w 145 0.500000
w 146 0.500000
w 147 0.500000
w 148 0.125000
w 149 0.125000
w 150 0.125000
w 151 0.125000
w 152 0.125000
w 153 0.125000
w 154 0.125000
w 155 0.125000
w 156 0.125000
w 157 0.125000
w 158 0.125000
w 159 0.125000
w 161 -1
w 164 -1
w 181 -1
w 202 -1
w 211 -1
w 214 -1
w 216 -1
w 221 -1
w 224 -1
w 225 -1
w 226 -1
w 227 -1
w 249 -1
w 251 -1
w 253 -1
w 254 -1
w 255 -1
w 257 -1
w 258 -1
w 260 -1
w 261 -1
w 268 -1
w 269 -1
w 271 -1
w 273 -1
w 274 -1
w 275 -1
w 276 -1
w 277 -1
w 278 -1
w 281 -1
w 286 -1
w 287 -1
w 289 -1
w 310 -1
w 311 -1
w 312 -1
w 313 -1
w 314 -1
w 315 -1
w 316 -1
w 317 -1
w 318 -1
w 319 -1
w 320 -1
w 321 -1
w 322 -1
w 323 -1
w 324 -1
w 325 -1
w 326 -1
w 327 -1
w 328 -1
w 329 -1
w 330 -1
w 331 -1
w 332 -1
w 333 -1
w 334 -1
w 335 -1
w 336 -1
w 337 -1
w 338 -1
w 339 -1
w 340 -1
w 341 -1
w 342 -1
w 343 -1
w 344 -1
w 345 -1
w 346 -1
w 347 -1
w 348 -1
w 349 -1
w 350 -1
w 351 -1
w 352 -1
w 353 -1
w 354 -1
w 355 -1
w 356 -1
w 357 -1
w 358 -1
w 376 -1
w 388 -1
w 417 -1
w 418 -1
w 419 -1
w 420 -1
w 421 -1
w 422 -1
w 423 -1
w 424 -1
w 425 -1
w 426 -1
w 427 -1
w 428 -1
w 429 -1
w 430 -1
w 431 -1
w 432 -1
w 433 -1
w 434 -1
w 435 -1
w 436 -1
w 437 -1
w 438 -1
w 439 -1
w 440 -1
w 441 -1
w 442 -1
w 443 -1
w 444 -1
w 445 -1
w 446 -1
w 447 -1
w 448 -1
w 449 -1
w 450 -1
w 451 -1
w 452 -1
w 453 -1
w 454 -1
w 455 -1
w 456 -1
w 457 -1
w 458 -1
w 459 -1
w 460 -1
w 461 -1
w 462 -1
w 463 -1
w 464 -1
w 465 -1
w 466 -1
w 467 -1
w 468 -1
w 469 -1
w 470 -1
w 471 -1
w 472 -1
w 473 -1
w 474 -1
w 475 -1
w 476 -1
w 486 -1
w 487 -1
w 488 -1
w 489 -1
w 490 -1
w 491 -1
w 492 -1
w 493 -1
w 494 -1
w 495 -1
w 496 -1
w 497 -1
w 498 -1
w 499 -1
w 500 -1
w 501 -1
w 520 -1
w 523 -1
w 554 -1
w 555 -1
w 556 -1
w 557 -1
w 558 -1
w 559 -1
w 560 -1
w 561 -1
w 562 -1
w 563 -1
w 564 -1
w 565 -1
w 566 -1
w 567 -1
w 568 -1
w 569 -1
w 582 -1
w 598 -1
w 613 -1
w 621 -1
w 622 -1
w 623 -1
w 646 -1
w 647 -1
w 648 -1
w 649 -1
w 650 -1
w 651 -1
w 652 -1
w 653 -1
w 654 -1
w 655 -1
w 656 -1
w 657 -1
w 658 -1
w 659 -1
w 660 -1
w 661 -1
w 662 -1
w 663 -1
w 763 -1
w 764 -1
w 765 -1
w 766 -1
w 767 -1
w 768 -1
w 769 -1
w 770 -1
w 771 -1
w 772 -1
w 794 -1
w 795 -1
w 796 -1
w 797 -1
w 798 -1
w 799 -1
w 800 -1
w 801 -1
w 802 -1
w 803 -1
w 813 -1
w 819 -1
w 820 -1
w 821 -1
w 828 -1
w 921 -1
w 935 -1
w 958 -1
w 959 -1
w 960 -1
w 961 -1
w 962 -1
w 963 -1
w 964 -1
w 965 -1
w 966 -1
w 967 -1
w 968 -1
w 969 -1
w 970 -1
w 971 -1
w 972 -1
w 973 -1
w 974 -1
w 975 -1
w 976 -1
w 977 -1
w 978 -1
w 979 -1
w 980 -1
w 981 -1
w 982 -1
w 983 -1
w 984 -1
w 985 -1
w 986 -1
w 987 -1
w 988 -1
w 989 -1
w 990 -1
w 991 -1
w 992 -1
w 993 -1
w 994 -1
w 995 -1
w 996 -1
w 997 -1
w 998 -1
w 999 -1
w 1143 -1
w 1144 -1
w 1145 -1
w 1146 -1
w 1147 -1
w 1148 -1
w 1149 -1
w 1150 -1
w 1151 -1
w 1152 -1
w 1153 -1
w 1154 -1
w 1155 -1
w 1156 -1
w 1157 -1
w 1158 -1
w 1159 -1
w 1160 -1
w 1161 -1
w 1162 -1
w 1163 -1
w 1164 -1
w 1165 -1
w 1166 -1
w 1167 -1
w 1168 -1
w 1169 -1
w 1170 -1
w 1171 -1
w 1172 -1
w 1183 -1
w 1184 -1
w 1185 -1
w 1186 -1
w 1187 -1
w 1188 -1
w 1189 -1
w 1190 -1
w 1191 -1
w 1192 -1
w 1193 -1
w 1194 -1
w 1195 -1
w 1196 -1
w 1197 -1
w 1198 -1
w 1199 -1
w 1200 -1
w 1201 -1
w 1202 -1
w 1288 -1
w 1289 -1
w 1290 -1
w 1291 -1
w 1292 -1
w 1293 -1
w 1294 -1
w 1295 -1
w 1296 -1
w 1297 -1
w 1298 -1
w 1299 -1
w 1300 -1
w 1301 -1
w 1302 -1
w 1303 -1
w 1304 -1
w 1305 -1
w 1306 -1
w 1307 -1
w 1308 -1
w 1309 -1
w 1310 -1
w 1311 -1
w 1312 -1
w 1313 -1
w 1314 -1
w 1315 -1
w 1316 -1
w 1342 -1
w 1343 -1
w 1344 -1
w 1345 -1
w 1346 -1
w 1347 -1
w 1348 -1
w 1349 -1
w 1539 -1
w 1540 -1
w 1541 -1
w 1542 -1
w 1543 -1
w 1544 -1
w 1545 -1
w 1546 -1
w 1547 -1
w 1548 -1
w 1549 -1
w 1550 -1
w 1551 -1
w 1552 -1
w 1553 -1
w 1554 -1
w 1555 -1
w 1556 -1
w 1557 -1
w 1558 -1
w 1559 -1
w 1560 -1
w 1561 -1
w 1562 -1
w 1563 -1
w 1564 -1
w 1565 -1
w 1566 -1
w 1567 -1
w 1568 -1
w 1569 -1
w 1570 -1
w 1571 -1
w 1572 -1
w 1573 -1
w 1574 -1
w 1575 -1
w 1576 -1
w 1577 -1
w 1578 -1
w 1579 -1
w 1580 -1
w 1581 -1
w 1582 -1
w 1583 -1
w 1584 -1
w 1585 -1
w 1586 -1
w 1587 -1
w 1588 -1
w 1589 -1
w 1590 -1
w 1591 -1
w 1592 -1
w 1593 -1
w 1594 -1
w 1595 -1
w 1596 -1
w 1597 -1
w 1598 -1
w 1599 -1
w 1600 -1
w 1601 -1
w 1602 -1
w 1603 -1
w 1604 -1
w 1605 -1
w 1606 -1
w 1607 -1
w 1608 -1
w 1609 -1
w 1610 -1
w 1611 -1
w 1612 -1
w 1613 -1
w 1614 -1
w 1615 -1
w 1616 -1
w 1617 -1
w 1618 -1
w 1619 -1
w 1620 -1
w 1621 -1
w 1622 -1
w 1623 -1
w 1624 -1
w 1625 -1
w 1626 -1
w 1627 -1
w 1628 -1
w 1629 -1
w 1630 -1
w 1631 -1
w 1632 -1
w 1633 -1
w 1634 -1
w 1635 -1
w 1636 -1
w 1637 -1
w 1638 -1
w 1639 -1
w 1640 -1
w 1641 -1
w 1642 -1
w 1643 -1
w 1644 -1
w 1645 -1
w 1646 -1
w 1647 -1
w 1648 -1
w 1649 -1
w 1650 -1
w 1651 -1
w 1652 -1
w 1653 -1
w 1654 -1
w 1655 -1
w 1656 -1
w 1657 -1
w 1658 -1
w 1659 -1
w 1660 -1
w 1661 -1
w 1662 -1
w 1663 -1
w 1664 -1
w 1665 -1
w 1666 -1
w 1667 -1
w 1668 -1
w 1669 -1
w 1670 -1
w 1671 -1
w 1672 -1
w 1673 -1
w 1674 -1
w 1675 -1
w 1676 -1
w 1677 -1
w 1678 -1
w 1679 -1
w 1680 -1
w 1681 -1
w 1682 -1
w 1683 -1
w 1684 -1
w 1685 -1
w 1686 -1
w 1687 -1
w 1688 -1
w 1689 -1
w 1690 -1
w 1691 -1
w 1692 -1
w 1693 -1
w 1694 -1
w 1695 -1
w 1696 -1
w 1697 -1
w 1698 -1
w 1699 -1
w 1700 -1
w 1701 -1
w 1702 -1
w 1703 -1
w 1704 -1
w 1705 -1
w 1706 -1
w 1707 -1
w 1708 -1
w 1709 -1
w 1710 -1
w 1711 -1
w 1712 -1
w 1713 -1
w 1714 -1
w 1715 -1
w 1716 -1
w 1717 -1
w 1718 -1
w 1719 -1
w 1720 -1
w 1721 -1
w 1722 -1
w 1723 -1
w 1724 -1
w 1725 -1
w 1726 -1
w 1727 -1
w 1728 -1
w 1729 -1
w 1730 -1
w 1731 -1
w 1732 -1
w 1733 -1
w 1734 -1
w 1735 -1
w 1736 -1
w 1737 -1
w 1738 -1
w 1739 -1
w 1740 -1
w 1741 -1
w 1742 -1
w 1743 -1
w 1744 -1
w 1745 -1
w 1746 -1
w 1747 -1
w 1748 -1
w 1749 -1
w 1750 -1
w 1751 -1
w 1752 -1
w 1753 -1
w 1754 -1
w 1755 -1
w 1756 -1
w 1757 -1
w 1758 -1
w 1759 -1
w 1760 -1
w 1761 -1
w 1762 -1
w 1763 -1
w 1764 -1
w 1765 -1
w 1766 -1
w 160 -1
